K0.5 Na0.5 Nb1 O3
1.0
        5.6572999954         0.0000000000         0.0000000000
        0.0000000000         3.9551000595         0.0000000000
        0.0000000000         0.0000000000         5.6717000008
   Nb    O    K   Na
    2    6    2    2
Direct
     0.000000000         0.500000000         0.500000000
     0.500000000         0.500000000         0.000000000
     0.248799995         0.500000000         0.217999995
     0.751200020         0.500000000         0.217999995
     0.748799980         0.500000000         0.717999995
     0.251200020         0.500000000         0.717999995
     0.000000000         0.000000000         0.461299986
     0.500000000         0.000000000         0.961300015
     0.000000000         0.000000000         0.000000000
     0.500000000         0.000000000         0.500000000
     0.000000000         0.000000000         0.000000000
     0.500000000         0.000000000         0.500000000
